(set-logic HORN)
(set-info :source |
    Benchmark: C_VC
    Output by Princess (http://www.philipp.ruemmer.org/princess.shtml)
|)
(set-info :status sat)
(declare-fun inv_main11 (Int Int) Bool)
(declare-fun inv_main17 (Int Int) Bool)
(declare-fun inv_main23 (Int Int) Bool)
(declare-fun inv_main29 (Int Int) Bool)
(declare-fun inv_main3 (Int) Bool)
(declare-fun inv_main5 (Int Int) Bool)
(declare-fun inv_main6 (Int Int) Bool)
(assert (inv_main3 0))
(assert (forall ((var0 Int) (var1 Int) (var2 Int) (var3 Int) (var4 Int) (var5 Int)) (or (not (and (inv_main17 var1 var0) (and (and (and (and (and (and (<= 0 (+ (+ 2 (* (- 1) var2)) (- 1))) (<= 0 (+ (+ 2 (* 1 var2)) (- 1)))) (or (not (<= 0 (+ var2 (- 1)))) (<= 0 (+ var0 (- 1))))) (or (not (<= 0 (+ (* (- 1) var2) (- 1)))) (<= 0 (+ (* (- 1) var0) (- 1))))) (= var0 (+ (* 2 var3) var2))) (= var2 0)) (and (and (and (and (and (<= 0 (+ (+ 2 (* (- 1) var4)) (- 1))) (<= 0 (+ (+ 2 (* 1 var4)) (- 1)))) (or (not (<= 0 (+ var4 (- 1)))) (<= 0 (+ var0 (- 1))))) (or (not (<= 0 (+ (* (- 1) var4) (- 1)))) (<= 0 (+ (* (- 1) var0) (- 1))))) (= var0 (+ (* 2 var5) var4))) (= var4 0))))) (inv_main23 (+ (+ var1 2) 2) var0))))
(assert (forall ((var0 Int) (var1 Int) (var2 Int) (var3 Int) (var4 Int) (var5 Int)) (or (not (and (inv_main17 var1 var0) (and (not (or (not (and (and (and (and (<= 0 (+ (+ 2 (* (- 1) var2)) (- 1))) (<= 0 (+ (+ 2 (* 1 var2)) (- 1)))) (or (not (<= 0 (+ var2 (- 1)))) (<= 0 (+ var0 (- 1))))) (or (not (<= 0 (+ (* (- 1) var2) (- 1)))) (<= 0 (+ (* (- 1) var0) (- 1))))) (= var0 (+ (* 2 var3) var2)))) (= var2 0))) (and (and (and (and (and (<= 0 (+ (+ 2 (* (- 1) var4)) (- 1))) (<= 0 (+ (+ 2 (* 1 var4)) (- 1)))) (or (not (<= 0 (+ var4 (- 1)))) (<= 0 (+ var0 (- 1))))) (or (not (<= 0 (+ (* (- 1) var4) (- 1)))) (<= 0 (+ (* (- 1) var0) (- 1))))) (= var0 (+ (* 2 var5) var4))) (= var4 0))))) (inv_main23 (+ (+ var1 2) (- 4)) var0))))
(assert (forall ((var0 Int) (var1 Int) (var2 Int) (var3 Int) (var4 Int) (var5 Int)) (or (not (and (inv_main17 var1 var0) (and (and (and (and (and (and (<= 0 (+ (+ 2 (* (- 1) var2)) (- 1))) (<= 0 (+ (+ 2 (* 1 var2)) (- 1)))) (or (not (<= 0 (+ var2 (- 1)))) (<= 0 (+ var0 (- 1))))) (or (not (<= 0 (+ (* (- 1) var2) (- 1)))) (<= 0 (+ (* (- 1) var0) (- 1))))) (= var0 (+ (* 2 var3) var2))) (= var2 0)) (not (or (not (and (and (and (and (<= 0 (+ (+ 2 (* (- 1) var4)) (- 1))) (<= 0 (+ (+ 2 (* 1 var4)) (- 1)))) (or (not (<= 0 (+ var4 (- 1)))) (<= 0 (+ var0 (- 1))))) (or (not (<= 0 (+ (* (- 1) var4) (- 1)))) (<= 0 (+ (* (- 1) var0) (- 1))))) (= var0 (+ (* 2 var5) var4)))) (= var4 0)))))) (inv_main23 (+ (+ var1 2) 2) var0))))
(assert (forall ((var0 Int) (var1 Int) (var2 Int) (var3 Int) (var4 Int) (var5 Int)) (or (not (and (inv_main17 var1 var0) (and (not (or (not (and (and (and (and (<= 0 (+ (+ 2 (* (- 1) var2)) (- 1))) (<= 0 (+ (+ 2 (* 1 var2)) (- 1)))) (or (not (<= 0 (+ var2 (- 1)))) (<= 0 (+ var0 (- 1))))) (or (not (<= 0 (+ (* (- 1) var2) (- 1)))) (<= 0 (+ (* (- 1) var0) (- 1))))) (= var0 (+ (* 2 var3) var2)))) (= var2 0))) (not (or (not (and (and (and (and (<= 0 (+ (+ 2 (* (- 1) var4)) (- 1))) (<= 0 (+ (+ 2 (* 1 var4)) (- 1)))) (or (not (<= 0 (+ var4 (- 1)))) (<= 0 (+ var0 (- 1))))) (or (not (<= 0 (+ (* (- 1) var4) (- 1)))) (<= 0 (+ (* (- 1) var0) (- 1))))) (= var0 (+ (* 2 var5) var4)))) (= var4 0)))))) (inv_main23 (+ (+ var1 2) (- 4)) var0))))
(assert (forall ((var0 Int) (var1 Int) (var2 Int) (var3 Int) (var4 Int) (var5 Int)) (or (not (and (inv_main11 var1 var0) (and (and (and (and (and (and (<= 0 (+ (+ 2 (* (- 1) var2)) (- 1))) (<= 0 (+ (+ 2 (* 1 var2)) (- 1)))) (or (not (<= 0 (+ var2 (- 1)))) (<= 0 (+ var0 (- 1))))) (or (not (<= 0 (+ (* (- 1) var2) (- 1)))) (<= 0 (+ (* (- 1) var0) (- 1))))) (= var0 (+ (* 2 var3) var2))) (= var2 0)) (and (and (and (and (and (<= 0 (+ (+ 2 (* (- 1) var4)) (- 1))) (<= 0 (+ (+ 2 (* 1 var4)) (- 1)))) (or (not (<= 0 (+ var4 (- 1)))) (<= 0 (+ var0 (- 1))))) (or (not (<= 0 (+ (* (- 1) var4) (- 1)))) (<= 0 (+ (* (- 1) var0) (- 1))))) (= var0 (+ (* 2 var5) var4))) (= var4 0))))) (inv_main17 (+ (+ var1 2) 2) var0))))
(assert (forall ((var0 Int) (var1 Int) (var2 Int) (var3 Int) (var4 Int) (var5 Int)) (or (not (and (inv_main11 var1 var0) (and (not (or (not (and (and (and (and (<= 0 (+ (+ 2 (* (- 1) var2)) (- 1))) (<= 0 (+ (+ 2 (* 1 var2)) (- 1)))) (or (not (<= 0 (+ var2 (- 1)))) (<= 0 (+ var0 (- 1))))) (or (not (<= 0 (+ (* (- 1) var2) (- 1)))) (<= 0 (+ (* (- 1) var0) (- 1))))) (= var0 (+ (* 2 var3) var2)))) (= var2 0))) (and (and (and (and (and (<= 0 (+ (+ 2 (* (- 1) var4)) (- 1))) (<= 0 (+ (+ 2 (* 1 var4)) (- 1)))) (or (not (<= 0 (+ var4 (- 1)))) (<= 0 (+ var0 (- 1))))) (or (not (<= 0 (+ (* (- 1) var4) (- 1)))) (<= 0 (+ (* (- 1) var0) (- 1))))) (= var0 (+ (* 2 var5) var4))) (= var4 0))))) (inv_main17 (+ (+ var1 2) (- 2)) var0))))
(assert (forall ((var0 Int) (var1 Int) (var2 Int) (var3 Int) (var4 Int) (var5 Int)) (or (not (and (inv_main11 var1 var0) (and (and (and (and (and (and (<= 0 (+ (+ 2 (* (- 1) var2)) (- 1))) (<= 0 (+ (+ 2 (* 1 var2)) (- 1)))) (or (not (<= 0 (+ var2 (- 1)))) (<= 0 (+ var0 (- 1))))) (or (not (<= 0 (+ (* (- 1) var2) (- 1)))) (<= 0 (+ (* (- 1) var0) (- 1))))) (= var0 (+ (* 2 var3) var2))) (= var2 0)) (not (or (not (and (and (and (and (<= 0 (+ (+ 2 (* (- 1) var4)) (- 1))) (<= 0 (+ (+ 2 (* 1 var4)) (- 1)))) (or (not (<= 0 (+ var4 (- 1)))) (<= 0 (+ var0 (- 1))))) (or (not (<= 0 (+ (* (- 1) var4) (- 1)))) (<= 0 (+ (* (- 1) var0) (- 1))))) (= var0 (+ (* 2 var5) var4)))) (= var4 0)))))) (inv_main17 (+ (+ var1 2) 2) var0))))
(assert (forall ((var0 Int) (var1 Int) (var2 Int) (var3 Int) (var4 Int) (var5 Int)) (or (not (and (inv_main11 var1 var0) (and (not (or (not (and (and (and (and (<= 0 (+ (+ 2 (* (- 1) var2)) (- 1))) (<= 0 (+ (+ 2 (* 1 var2)) (- 1)))) (or (not (<= 0 (+ var2 (- 1)))) (<= 0 (+ var0 (- 1))))) (or (not (<= 0 (+ (* (- 1) var2) (- 1)))) (<= 0 (+ (* (- 1) var0) (- 1))))) (= var0 (+ (* 2 var3) var2)))) (= var2 0))) (not (or (not (and (and (and (and (<= 0 (+ (+ 2 (* (- 1) var4)) (- 1))) (<= 0 (+ (+ 2 (* 1 var4)) (- 1)))) (or (not (<= 0 (+ var4 (- 1)))) (<= 0 (+ var0 (- 1))))) (or (not (<= 0 (+ (* (- 1) var4) (- 1)))) (<= 0 (+ (* (- 1) var0) (- 1))))) (= var0 (+ (* 2 var5) var4)))) (= var4 0)))))) (inv_main17 (+ (+ var1 2) (- 2)) var0))))
(assert (forall ((var0 Int) (var1 Int) (var2 Int) (var3 Int) (var4 Int) (var5 Int)) (or (not (and (inv_main29 var1 var0) (and (and (and (and (and (and (<= 0 (+ (+ 2 (* (- 1) var2)) (- 1))) (<= 0 (+ (+ 2 (* 1 var2)) (- 1)))) (or (not (<= 0 (+ var2 (- 1)))) (<= 0 (+ var0 (- 1))))) (or (not (<= 0 (+ (* (- 1) var2) (- 1)))) (<= 0 (+ (* (- 1) var0) (- 1))))) (= var0 (+ (* 2 var3) var2))) (= var2 0)) (and (and (and (and (and (<= 0 (+ (+ 2 (* (- 1) var4)) (- 1))) (<= 0 (+ (+ 2 (* 1 var4)) (- 1)))) (or (not (<= 0 (+ var4 (- 1)))) (<= 0 (+ var0 (- 1))))) (or (not (<= 0 (+ (* (- 1) var4) (- 1)))) (<= 0 (+ (* (- 1) var0) (- 1))))) (= var0 (+ (* 2 var5) var4))) (= var4 0))))) (inv_main5 (+ (+ var1 2) 2) var0))))
(assert (forall ((var0 Int) (var1 Int) (var2 Int) (var3 Int) (var4 Int) (var5 Int)) (or (not (and (inv_main29 var1 var0) (and (not (or (not (and (and (and (and (<= 0 (+ (+ 2 (* (- 1) var2)) (- 1))) (<= 0 (+ (+ 2 (* 1 var2)) (- 1)))) (or (not (<= 0 (+ var2 (- 1)))) (<= 0 (+ var0 (- 1))))) (or (not (<= 0 (+ (* (- 1) var2) (- 1)))) (<= 0 (+ (* (- 1) var0) (- 1))))) (= var0 (+ (* 2 var3) var2)))) (= var2 0))) (and (and (and (and (and (<= 0 (+ (+ 2 (* (- 1) var4)) (- 1))) (<= 0 (+ (+ 2 (* 1 var4)) (- 1)))) (or (not (<= 0 (+ var4 (- 1)))) (<= 0 (+ var0 (- 1))))) (or (not (<= 0 (+ (* (- 1) var4) (- 1)))) (<= 0 (+ (* (- 1) var0) (- 1))))) (= var0 (+ (* 2 var5) var4))) (= var4 0))))) (inv_main5 (+ (+ var1 2) (- 4)) var0))))
(assert (forall ((var0 Int) (var1 Int) (var2 Int) (var3 Int) (var4 Int) (var5 Int)) (or (not (and (inv_main29 var1 var0) (and (and (and (and (and (and (<= 0 (+ (+ 2 (* (- 1) var2)) (- 1))) (<= 0 (+ (+ 2 (* 1 var2)) (- 1)))) (or (not (<= 0 (+ var2 (- 1)))) (<= 0 (+ var0 (- 1))))) (or (not (<= 0 (+ (* (- 1) var2) (- 1)))) (<= 0 (+ (* (- 1) var0) (- 1))))) (= var0 (+ (* 2 var3) var2))) (= var2 0)) (not (or (not (and (and (and (and (<= 0 (+ (+ 2 (* (- 1) var4)) (- 1))) (<= 0 (+ (+ 2 (* 1 var4)) (- 1)))) (or (not (<= 0 (+ var4 (- 1)))) (<= 0 (+ var0 (- 1))))) (or (not (<= 0 (+ (* (- 1) var4) (- 1)))) (<= 0 (+ (* (- 1) var0) (- 1))))) (= var0 (+ (* 2 var5) var4)))) (= var4 0)))))) (inv_main5 (+ (+ var1 (- 4)) 2) var0))))
(assert (forall ((var0 Int) (var1 Int) (var2 Int) (var3 Int) (var4 Int) (var5 Int)) (or (not (and (inv_main29 var1 var0) (and (not (or (not (and (and (and (and (<= 0 (+ (+ 2 (* (- 1) var2)) (- 1))) (<= 0 (+ (+ 2 (* 1 var2)) (- 1)))) (or (not (<= 0 (+ var2 (- 1)))) (<= 0 (+ var0 (- 1))))) (or (not (<= 0 (+ (* (- 1) var2) (- 1)))) (<= 0 (+ (* (- 1) var0) (- 1))))) (= var0 (+ (* 2 var3) var2)))) (= var2 0))) (not (or (not (and (and (and (and (<= 0 (+ (+ 2 (* (- 1) var4)) (- 1))) (<= 0 (+ (+ 2 (* 1 var4)) (- 1)))) (or (not (<= 0 (+ var4 (- 1)))) (<= 0 (+ var0 (- 1))))) (or (not (<= 0 (+ (* (- 1) var4) (- 1)))) (<= 0 (+ (* (- 1) var0) (- 1))))) (= var0 (+ (* 2 var5) var4)))) (= var4 0)))))) (inv_main5 (+ (+ var1 (- 4)) (- 4)) var0))))
(assert (forall ((var0 Int) (var1 Int)) (or (not (and (inv_main3 var1) (<= 0 var0))) (inv_main5 var1 var0))))
(assert (forall ((var0 Int) (var1 Int)) (or (not (and (inv_main5 var1 var0) (not (<= 0 (+ (+ 99 (* (- 1) var1)) (- 1)))))) (inv_main6 var1 var0))))
(assert (forall ((var0 Int) (var1 Int) (var2 Int) (var3 Int) (var4 Int) (var5 Int)) (or (not (and (inv_main5 var1 var0) (and (and (and (and (and (and (<= 0 (+ (+ 2 (* (- 1) var2)) (- 1))) (<= 0 (+ (+ 2 (* 1 var2)) (- 1)))) (or (not (<= 0 (+ var2 (- 1)))) (<= 0 (+ var0 (- 1))))) (or (not (<= 0 (+ (* (- 1) var2) (- 1)))) (<= 0 (+ (* (- 1) var0) (- 1))))) (= var0 (+ (* 2 var3) var2))) (= var2 0)) (and (and (and (and (and (and (<= 0 (+ (+ 2 (* (- 1) var4)) (- 1))) (<= 0 (+ (+ 2 (* 1 var4)) (- 1)))) (or (not (<= 0 (+ var4 (- 1)))) (<= 0 (+ var0 (- 1))))) (or (not (<= 0 (+ (* (- 1) var4) (- 1)))) (<= 0 (+ (* (- 1) var0) (- 1))))) (= var0 (+ (* 2 var5) var4))) (= var4 0)) (<= 0 (+ (+ 99 (* (- 1) var1)) (- 1))))))) (inv_main11 (+ (+ var1 2) 2) var0))))
(assert (forall ((var0 Int) (var1 Int) (var2 Int) (var3 Int) (var4 Int) (var5 Int)) (or (not (and (inv_main5 var1 var0) (and (not (or (not (and (and (and (and (<= 0 (+ (+ 2 (* (- 1) var2)) (- 1))) (<= 0 (+ (+ 2 (* 1 var2)) (- 1)))) (or (not (<= 0 (+ var2 (- 1)))) (<= 0 (+ var0 (- 1))))) (or (not (<= 0 (+ (* (- 1) var2) (- 1)))) (<= 0 (+ (* (- 1) var0) (- 1))))) (= var0 (+ (* 2 var3) var2)))) (= var2 0))) (and (and (and (and (and (and (<= 0 (+ (+ 2 (* (- 1) var4)) (- 1))) (<= 0 (+ (+ 2 (* 1 var4)) (- 1)))) (or (not (<= 0 (+ var4 (- 1)))) (<= 0 (+ var0 (- 1))))) (or (not (<= 0 (+ (* (- 1) var4) (- 1)))) (<= 0 (+ (* (- 1) var0) (- 1))))) (= var0 (+ (* 2 var5) var4))) (= var4 0)) (<= 0 (+ (+ 99 (* (- 1) var1)) (- 1))))))) (inv_main11 (+ (+ var1 2) (- 2)) var0))))
(assert (forall ((var0 Int) (var1 Int) (var2 Int) (var3 Int) (var4 Int) (var5 Int)) (or (not (and (inv_main5 var1 var0) (and (and (and (and (and (and (<= 0 (+ (+ 2 (* (- 1) var2)) (- 1))) (<= 0 (+ (+ 2 (* 1 var2)) (- 1)))) (or (not (<= 0 (+ var2 (- 1)))) (<= 0 (+ var0 (- 1))))) (or (not (<= 0 (+ (* (- 1) var2) (- 1)))) (<= 0 (+ (* (- 1) var0) (- 1))))) (= var0 (+ (* 2 var3) var2))) (= var2 0)) (and (not (or (not (and (and (and (and (<= 0 (+ (+ 2 (* (- 1) var4)) (- 1))) (<= 0 (+ (+ 2 (* 1 var4)) (- 1)))) (or (not (<= 0 (+ var4 (- 1)))) (<= 0 (+ var0 (- 1))))) (or (not (<= 0 (+ (* (- 1) var4) (- 1)))) (<= 0 (+ (* (- 1) var0) (- 1))))) (= var0 (+ (* 2 var5) var4)))) (= var4 0))) (<= 0 (+ (+ 99 (* (- 1) var1)) (- 1))))))) (inv_main11 (+ (+ var1 1) 2) var0))))
(assert (forall ((var0 Int) (var1 Int) (var2 Int) (var3 Int) (var4 Int) (var5 Int)) (or (not (and (inv_main5 var1 var0) (and (not (or (not (and (and (and (and (<= 0 (+ (+ 2 (* (- 1) var2)) (- 1))) (<= 0 (+ (+ 2 (* 1 var2)) (- 1)))) (or (not (<= 0 (+ var2 (- 1)))) (<= 0 (+ var0 (- 1))))) (or (not (<= 0 (+ (* (- 1) var2) (- 1)))) (<= 0 (+ (* (- 1) var0) (- 1))))) (= var0 (+ (* 2 var3) var2)))) (= var2 0))) (and (not (or (not (and (and (and (and (<= 0 (+ (+ 2 (* (- 1) var4)) (- 1))) (<= 0 (+ (+ 2 (* 1 var4)) (- 1)))) (or (not (<= 0 (+ var4 (- 1)))) (<= 0 (+ var0 (- 1))))) (or (not (<= 0 (+ (* (- 1) var4) (- 1)))) (<= 0 (+ (* (- 1) var0) (- 1))))) (= var0 (+ (* 2 var5) var4)))) (= var4 0))) (<= 0 (+ (+ 99 (* (- 1) var1)) (- 1))))))) (inv_main11 (+ (+ var1 1) (- 2)) var0))))
(assert (forall ((var0 Int) (var1 Int) (var2 Int) (var3 Int) (var4 Int) (var5 Int)) (or (not (and (inv_main23 var1 var0) (and (and (and (and (and (and (<= 0 (+ (+ 2 (* (- 1) var2)) (- 1))) (<= 0 (+ (+ 2 (* 1 var2)) (- 1)))) (or (not (<= 0 (+ var2 (- 1)))) (<= 0 (+ var0 (- 1))))) (or (not (<= 0 (+ (* (- 1) var2) (- 1)))) (<= 0 (+ (* (- 1) var0) (- 1))))) (= var0 (+ (* 2 var3) var2))) (= var2 0)) (and (and (and (and (and (<= 0 (+ (+ 2 (* (- 1) var4)) (- 1))) (<= 0 (+ (+ 2 (* 1 var4)) (- 1)))) (or (not (<= 0 (+ var4 (- 1)))) (<= 0 (+ var0 (- 1))))) (or (not (<= 0 (+ (* (- 1) var4) (- 1)))) (<= 0 (+ (* (- 1) var0) (- 1))))) (= var0 (+ (* 2 var5) var4))) (= var4 0))))) (inv_main29 (+ (+ var1 2) 2) var0))))
(assert (forall ((var0 Int) (var1 Int) (var2 Int) (var3 Int) (var4 Int) (var5 Int)) (or (not (and (inv_main23 var1 var0) (and (not (or (not (and (and (and (and (<= 0 (+ (+ 2 (* (- 1) var2)) (- 1))) (<= 0 (+ (+ 2 (* 1 var2)) (- 1)))) (or (not (<= 0 (+ var2 (- 1)))) (<= 0 (+ var0 (- 1))))) (or (not (<= 0 (+ (* (- 1) var2) (- 1)))) (<= 0 (+ (* (- 1) var0) (- 1))))) (= var0 (+ (* 2 var3) var2)))) (= var2 0))) (and (and (and (and (and (<= 0 (+ (+ 2 (* (- 1) var4)) (- 1))) (<= 0 (+ (+ 2 (* 1 var4)) (- 1)))) (or (not (<= 0 (+ var4 (- 1)))) (<= 0 (+ var0 (- 1))))) (or (not (<= 0 (+ (* (- 1) var4) (- 1)))) (<= 0 (+ (* (- 1) var0) (- 1))))) (= var0 (+ (* 2 var5) var4))) (= var4 0))))) (inv_main29 (+ (+ var1 2) 2) var0))))
(assert (forall ((var0 Int) (var1 Int) (var2 Int) (var3 Int) (var4 Int) (var5 Int)) (or (not (and (inv_main23 var1 var0) (and (and (and (and (and (and (<= 0 (+ (+ 2 (* (- 1) var2)) (- 1))) (<= 0 (+ (+ 2 (* 1 var2)) (- 1)))) (or (not (<= 0 (+ var2 (- 1)))) (<= 0 (+ var0 (- 1))))) (or (not (<= 0 (+ (* (- 1) var2) (- 1)))) (<= 0 (+ (* (- 1) var0) (- 1))))) (= var0 (+ (* 2 var3) var2))) (= var2 0)) (not (or (not (and (and (and (and (<= 0 (+ (+ 2 (* (- 1) var4)) (- 1))) (<= 0 (+ (+ 2 (* 1 var4)) (- 1)))) (or (not (<= 0 (+ var4 (- 1)))) (<= 0 (+ var0 (- 1))))) (or (not (<= 0 (+ (* (- 1) var4) (- 1)))) (<= 0 (+ (* (- 1) var0) (- 1))))) (= var0 (+ (* 2 var5) var4)))) (= var4 0)))))) (inv_main29 (+ (+ var1 4) 2) var0))))
(assert (forall ((var0 Int) (var1 Int) (var2 Int) (var3 Int) (var4 Int) (var5 Int)) (or (not (and (inv_main23 var1 var0) (and (not (or (not (and (and (and (and (<= 0 (+ (+ 2 (* (- 1) var2)) (- 1))) (<= 0 (+ (+ 2 (* 1 var2)) (- 1)))) (or (not (<= 0 (+ var2 (- 1)))) (<= 0 (+ var0 (- 1))))) (or (not (<= 0 (+ (* (- 1) var2) (- 1)))) (<= 0 (+ (* (- 1) var0) (- 1))))) (= var0 (+ (* 2 var3) var2)))) (= var2 0))) (not (or (not (and (and (and (and (<= 0 (+ (+ 2 (* (- 1) var4)) (- 1))) (<= 0 (+ (+ 2 (* 1 var4)) (- 1)))) (or (not (<= 0 (+ var4 (- 1)))) (<= 0 (+ var0 (- 1))))) (or (not (<= 0 (+ (* (- 1) var4) (- 1)))) (<= 0 (+ (* (- 1) var0) (- 1))))) (= var0 (+ (* 2 var5) var4)))) (= var4 0)))))) (inv_main29 (+ (+ var1 4) 2) var0))))
(assert (forall ((var0 Int) (var1 Int) (var2 Int) (var3 Int) (var4 Int) (var5 Int)) (not (and (inv_main6 var1 var0) (not (or (not (and (and (and (and (<= 0 (+ (+ 2 (* (- 1) var2)) (- 1))) (<= 0 (+ (+ 2 (* 1 var2)) (- 1)))) (or (not (<= 0 (+ var2 (- 1)))) (<= 0 (+ var1 (- 1))))) (or (not (<= 0 (+ (* (- 1) var2) (- 1)))) (<= 0 (+ (* (- 1) var1) (- 1))))) (= var1 (+ (* 2 var3) var2)))) (or (not (and (and (and (and (<= 0 (+ (+ 2 (* (- 1) var4)) (- 1))) (<= 0 (+ (+ 2 (* 1 var4)) (- 1)))) (or (not (<= 0 (+ var4 (- 1)))) (<= 0 (+ var0 (- 1))))) (or (not (<= 0 (+ (* (- 1) var4) (- 1)))) (<= 0 (+ (* (- 1) var0) (- 1))))) (= var0 (+ (* 2 var5) var4)))) (= var2 var4))))))))
(check-sat)
